50

100 29 307
98 9 298
98 12 295
97 28 354
95 26 344
94 24 360
90 9 303
90 17 299
89 9 347
86 14 340
85 1 262
83 14 265
81 16 333
79 19 303
79 22 251
74 10 298
72 16 294
72 13 314
71 5 313
68 0 317
67 16 245
65 7 250
64 18 343
64 5 355
62 2 318
59 7 343
58 5 238
56 3 339
55 10 312
55 2 285
54 12 345
51 5 337
51 11 343
50 2 287
47 9 296
46 9 245
45 10 165
44 13 344
43 3 357
40 7 254
36 10 175
34 0 197
33 1 247
31 8 319
29 2 149
28 3 88
27 8 216
27 2 294
26 0 306
21 0 248
